365
189
139
325
165
309
304
158
290
245
322
209
323
237
263
492
164
151
357
208
210
203
162
194
173
357
180
239
314
160
189
341
226
403
300
153
267
483
373
208
140
316
320
174
287
397
436
256
267
144
487
368
262
469
311
273
192
246
199
243
491
400
241
186
270
486
189
97
114
352
200
332
177
382
187
544
328
182
208
567
671
140
238
206
125
265
295
230
211
205
303
221
126
197
251
149
399
333
249
69
